p edge 2354 2279
e 1 2
e 1 3
e 1 4
e 1 5
e 1 6
e 1 7
e 1 8
e 1 9
e 1 10
e 1 11
e 1 12
e 1 13
e 1 14
e 1 15
e 1 16
e 1 17
e 1 18
e 1 19
e 1 20
e 1 21
e 1 22
e 1 23
e 1 24
e 1 25
e 1 26
e 1 27
e 1 28
e 1 29
e 1 30
e 1 31
e 1 32
e 1 33
e 1 34
e 1 35
e 1 36
e 1 37
e 1 38
e 1 39
e 1 40
e 1 41
e 1 42
e 1 43
e 1 44
e 45 46
e 45 47
e 45 48
e 45 49
e 45 50
e 45 51
e 45 52
e 45 53
e 45 54
e 45 55
e 56 57
e 56 58
e 56 59
e 56 60
e 56 61
e 56 62
e 56 63
e 56 64
e 56 65
e 56 66
e 56 67
e 56 68
e 56 69
e 56 70
e 71 72
e 71 73
e 71 74
e 71 75
e 71 76
e 71 77
e 71 78
e 71 79
e 71 80
e 71 81
e 71 82
e 71 83
e 71 84
e 71 85
e 71 86
e 71 87
e 71 88
e 71 89
e 71 90
e 71 91
e 71 92
e 71 93
e 71 94
e 71 95
e 71 96
e 71 97
e 71 98
e 71 99
e 71 100
e 71 101
e 71 102
e 71 103
e 71 104
e 71 105
e 71 106
e 71 107
e 71 108
e 71 109
e 71 110
e 71 111
e 71 112
e 71 113
e 71 114
e 115 116
e 115 117
e 115 118
e 115 119
e 115 120
e 115 121
e 115 122
e 115 123
e 115 124
e 115 125
e 115 126
e 115 127
e 115 128
e 115 129
e 115 130
e 115 131
e 115 132
e 115 133
e 115 134
e 115 135
e 115 136
e 115 137
e 115 138
e 115 139
e 115 140
e 115 141
e 115 142
e 143 144
e 143 145
e 143 146
e 143 147
e 143 148
e 143 149
e 143 150
e 143 151
e 143 152
e 143 153
e 143 154
e 143 155
e 143 156
e 143 157
e 143 158
e 143 159
e 143 160
e 143 161
e 143 162
e 143 163
e 143 164
e 143 165
e 143 166
e 143 167
e 143 168
e 143 169
e 143 170
e 143 171
e 143 172
e 143 173
e 143 174
e 143 175
e 143 176
e 143 177
e 143 178
e 143 179
e 143 180
e 143 181
e 143 182
e 143 183
e 143 184
e 143 185
e 143 186
e 143 187
e 143 188
e 189 190
e 189 191
e 189 192
e 189 193
e 189 194
e 189 195
e 189 196
e 189 197
e 189 198
e 189 199
e 189 200
e 189 201
e 189 202
e 189 203
e 189 204
e 189 205
e 189 206
e 189 207
e 189 208
e 189 209
e 189 210
e 189 211
e 189 212
e 189 213
e 189 214
e 189 215
e 189 216
e 189 217
e 189 218
e 189 219
e 189 220
e 189 221
e 189 222
e 189 223
e 189 224
e 189 225
e 189 226
e 189 227
e 189 228
e 189 229
e 189 230
e 189 231
e 232 233
e 232 234
e 232 235
e 232 236
e 232 237
e 232 238
e 232 239
e 232 240
e 232 241
e 232 242
e 232 243
e 232 244
e 232 245
e 232 246
e 232 247
e 232 248
e 232 249
e 232 250
e 232 251
e 232 252
e 232 253
e 232 254
e 232 255
e 232 256
e 232 257
e 232 258
e 232 259
e 232 260
e 232 261
e 232 262
e 232 263
e 264 265
e 264 266
e 264 267
e 264 268
e 264 269
e 264 270
e 264 271
e 264 272
e 264 273
e 264 274
e 264 275
e 264 276
e 264 277
e 264 278
e 279 280
e 279 281
e 279 282
e 279 283
e 279 284
e 279 285
e 279 286
e 279 287
e 279 288
e 279 289
e 279 290
e 279 291
e 279 292
e 279 293
e 279 294
e 279 295
e 279 296
e 279 297
e 279 298
e 279 299
e 279 300
e 279 301
e 279 302
e 279 303
e 279 304
e 279 305
e 279 306
e 279 307
e 279 308
e 279 309
e 279 310
e 279 311
e 279 312
e 279 313
e 279 314
e 279 315
e 279 316
e 279 317
e 279 318
e 279 319
e 279 320
e 279 321
e 279 322
e 279 323
e 279 324
e 279 325
e 279 326
e 327 328
e 327 329
e 327 330
e 327 331
e 327 332
e 327 333
e 327 334
e 327 335
e 327 336
e 327 337
e 327 338
e 327 339
e 327 340
e 327 341
e 327 342
e 327 343
e 327 344
e 327 345
e 327 346
e 327 347
e 327 348
e 327 349
e 327 350
e 327 351
e 327 352
e 327 353
e 327 354
e 327 355
e 327 356
e 327 357
e 327 358
e 327 359
e 327 360
e 327 361
e 327 362
e 327 363
e 327 364
e 327 365
e 327 366
e 327 367
e 327 368
e 327 369
e 327 370
e 327 371
e 327 372
e 327 373
e 374 375
e 374 376
e 374 377
e 374 378
e 374 379
e 374 380
e 374 381
e 374 382
e 374 383
e 374 384
e 374 385
e 374 386
e 374 387
e 374 388
e 374 389
e 374 390
e 374 391
e 374 392
e 374 393
e 374 394
e 374 395
e 374 396
e 374 397
e 374 398
e 374 399
e 374 400
e 374 401
e 374 402
e 374 403
e 374 404
e 405 406
e 405 407
e 405 408
e 405 409
e 405 410
e 405 411
e 405 412
e 405 413
e 405 414
e 405 415
e 405 416
e 405 417
e 405 418
e 405 419
e 405 420
e 405 421
e 405 422
e 405 423
e 405 424
e 405 425
e 405 426
e 405 427
e 405 428
e 405 429
e 405 430
e 405 431
e 405 432
e 433 434
e 433 435
e 433 436
e 433 437
e 433 438
e 433 439
e 433 440
e 433 441
e 433 442
e 433 443
e 433 444
e 433 445
e 433 446
e 433 447
e 433 448
e 433 449
e 433 450
e 433 451
e 433 452
e 433 453
e 433 454
e 433 455
e 433 456
e 433 457
e 433 458
e 433 459
e 433 460
e 433 461
e 433 462
e 433 463
e 433 464
e 433 465
e 433 466
e 433 467
e 433 468
e 433 469
e 433 470
e 433 471
e 433 472
e 473 474
e 473 475
e 473 476
e 473 477
e 473 478
e 473 479
e 473 480
e 473 481
e 473 482
e 473 483
e 473 484
e 473 485
e 473 486
e 473 487
e 473 488
e 473 489
e 473 490
e 473 491
e 473 492
e 473 493
e 473 494
e 473 495
e 473 496
e 473 497
e 473 498
e 473 499
e 473 500
e 501 502
e 501 503
e 501 504
e 501 505
e 501 506
e 501 507
e 501 508
e 501 509
e 501 510
e 501 511
e 501 512
e 501 513
e 514 515
e 514 516
e 514 517
e 514 518
e 514 519
e 514 520
e 514 521
e 514 522
e 514 523
e 514 524
e 514 525
e 514 526
e 514 527
e 514 528
e 514 529
e 514 530
e 514 531
e 532 533
e 532 534
e 532 535
e 532 536
e 532 537
e 532 538
e 532 539
e 532 540
e 532 541
e 532 542
e 532 543
e 532 544
e 532 545
e 532 546
e 532 547
e 532 548
e 532 549
e 532 550
e 532 551
e 532 552
e 532 553
e 532 554
e 555 556
e 555 557
e 555 558
e 555 559
e 555 560
e 555 561
e 555 562
e 555 563
e 555 564
e 555 565
e 555 566
e 555 567
e 568 569
e 568 570
e 568 571
e 568 572
e 568 573
e 568 574
e 568 575
e 568 576
e 568 577
e 568 578
e 568 579
e 568 580
e 568 581
e 568 582
e 568 583
e 568 584
e 585 586
e 585 587
e 585 588
e 585 589
e 585 590
e 585 591
e 585 592
e 585 593
e 585 594
e 585 595
e 585 596
e 585 597
e 585 598
e 585 599
e 585 600
e 585 601
e 585 602
e 585 603
e 585 604
e 585 605
e 585 606
e 585 607
e 585 608
e 585 609
e 585 610
e 585 611
e 585 612
e 585 613
e 585 614
e 585 615
e 585 616
e 585 617
e 585 618
e 585 619
e 585 620
e 585 621
e 585 622
e 585 623
e 585 624
e 585 625
e 585 626
e 585 627
e 585 628
e 629 630
e 629 631
e 629 632
e 629 633
e 629 634
e 629 635
e 629 636
e 629 637
e 629 638
e 629 639
e 629 640
e 629 641
e 629 642
e 629 643
e 629 644
e 629 645
e 629 646
e 629 647
e 629 648
e 629 649
e 629 650
e 629 651
e 629 652
e 629 653
e 654 655
e 654 656
e 654 657
e 654 658
e 654 659
e 654 660
e 654 661
e 654 662
e 654 663
e 654 664
e 654 665
e 654 666
e 654 667
e 654 668
e 654 669
e 654 670
e 654 671
e 654 672
e 654 673
e 654 674
e 654 675
e 654 676
e 677 678
e 677 679
e 677 680
e 677 681
e 677 682
e 677 683
e 677 684
e 677 685
e 677 686
e 677 687
e 688 689
e 688 690
e 688 691
e 688 692
e 688 693
e 688 694
e 688 695
e 688 696
e 688 697
e 688 698
e 688 699
e 688 700
e 688 701
e 688 702
e 688 703
e 688 704
e 688 705
e 688 706
e 688 707
e 688 708
e 688 709
e 688 710
e 688 711
e 688 712
e 688 713
e 688 714
e 688 715
e 688 716
e 717 718
e 717 719
e 717 720
e 717 721
e 717 722
e 717 723
e 717 724
e 717 725
e 717 726
e 717 727
e 717 728
e 717 729
e 717 730
e 717 731
e 717 732
e 717 733
e 734 735
e 734 736
e 734 737
e 734 738
e 734 739
e 734 740
e 734 741
e 734 742
e 734 743
e 734 744
e 734 745
e 734 746
e 734 747
e 748 749
e 748 750
e 748 751
e 748 752
e 748 753
e 748 754
e 748 755
e 748 756
e 748 757
e 748 758
e 748 759
e 748 760
e 748 761
e 748 762
e 748 763
e 748 764
e 748 765
e 748 766
e 748 767
e 748 768
e 748 769
e 748 770
e 748 771
e 748 772
e 748 773
e 748 774
e 748 775
e 748 776
e 748 777
e 748 778
e 748 779
e 748 780
e 748 781
e 748 782
e 748 783
e 748 784
e 748 785
e 748 786
e 748 787
e 748 788
e 748 789
e 748 790
e 748 791
e 748 792
e 748 793
e 748 794
e 748 795
e 748 796
e 748 797
e 798 799
e 798 800
e 798 801
e 798 802
e 798 803
e 798 804
e 798 805
e 798 806
e 798 807
e 798 808
e 798 809
e 798 810
e 798 811
e 798 812
e 798 813
e 798 814
e 798 815
e 798 816
e 798 817
e 798 818
e 798 819
e 798 820
e 798 821
e 798 822
e 798 823
e 798 824
e 798 825
e 798 826
e 798 827
e 798 828
e 798 829
e 798 830
e 798 831
e 798 832
e 833 834
e 833 835
e 833 836
e 833 837
e 833 838
e 833 839
e 833 840
e 833 841
e 833 842
e 833 843
e 833 844
e 833 845
e 833 846
e 833 847
e 833 848
e 833 849
e 833 850
e 833 851
e 833 852
e 833 853
e 833 854
e 833 855
e 833 856
e 833 857
e 833 858
e 833 859
e 833 860
e 833 861
e 833 862
e 833 863
e 833 864
e 833 865
e 833 866
e 833 867
e 868 869
e 868 870
e 868 871
e 868 872
e 868 873
e 868 874
e 868 875
e 868 876
e 868 877
e 868 878
e 868 879
e 868 880
e 868 881
e 868 882
e 868 883
e 868 884
e 868 885
e 868 886
e 868 887
e 868 888
e 868 889
e 868 890
e 868 891
e 868 892
e 868 893
e 868 894
e 868 895
e 868 896
e 868 897
e 898 899
e 898 900
e 898 901
e 898 902
e 898 903
e 898 904
e 898 905
e 898 906
e 898 907
e 898 908
e 898 909
e 898 910
e 898 911
e 898 912
e 898 913
e 898 914
e 898 915
e 898 916
e 898 917
e 898 918
e 898 919
e 898 920
e 898 921
e 898 922
e 898 923
e 898 924
e 898 925
e 898 926
e 898 927
e 898 928
e 898 929
e 930 931
e 930 932
e 930 933
e 930 934
e 930 935
e 930 936
e 930 937
e 930 938
e 930 939
e 930 940
e 930 941
e 930 942
e 943 944
e 943 945
e 943 946
e 943 947
e 943 948
e 943 949
e 943 950
e 943 951
e 943 952
e 943 953
e 943 954
e 943 955
e 943 956
e 943 957
e 943 958
e 943 959
e 943 960
e 943 961
e 943 962
e 943 963
e 943 964
e 943 965
e 943 966
e 943 967
e 943 968
e 943 969
e 943 970
e 943 971
e 943 972
e 943 973
e 974 975
e 974 976
e 974 977
e 974 978
e 974 979
e 974 980
e 974 981
e 974 982
e 974 983
e 974 984
e 974 985
e 974 986
e 974 987
e 974 988
e 974 989
e 974 990
e 974 991
e 974 992
e 974 993
e 974 994
e 974 995
e 974 996
e 974 997
e 974 998
e 974 999
e 974 1000
e 974 1001
e 1002 1003
e 1002 1004
e 1002 1005
e 1002 1006
e 1002 1007
e 1002 1008
e 1002 1009
e 1002 1010
e 1002 1011
e 1002 1012
e 1002 1013
e 1002 1014
e 1002 1015
e 1002 1016
e 1002 1017
e 1002 1018
e 1002 1019
e 1002 1020
e 1002 1021
e 1002 1022
e 1002 1023
e 1002 1024
e 1002 1025
e 1002 1026
e 1002 1027
e 1002 1028
e 1002 1029
e 1002 1030
e 1002 1031
e 1002 1032
e 1002 1033
e 1002 1034
e 1002 1035
e 1002 1036
e 1002 1037
e 1038 1039
e 1038 1040
e 1038 1041
e 1038 1042
e 1038 1043
e 1038 1044
e 1038 1045
e 1038 1046
e 1038 1047
e 1038 1048
e 1038 1049
e 1038 1050
e 1038 1051
e 1038 1052
e 1038 1053
e 1038 1054
e 1038 1055
e 1038 1056
e 1038 1057
e 1038 1058
e 1038 1059
e 1038 1060
e 1038 1061
e 1038 1062
e 1063 1064
e 1063 1065
e 1063 1066
e 1063 1067
e 1063 1068
e 1063 1069
e 1063 1070
e 1063 1071
e 1063 1072
e 1063 1073
e 1063 1074
e 1063 1075
e 1063 1076
e 1063 1077
e 1063 1078
e 1063 1079
e 1063 1080
e 1063 1081
e 1063 1082
e 1063 1083
e 1063 1084
e 1063 1085
e 1063 1086
e 1063 1087
e 1063 1088
e 1063 1089
e 1063 1090
e 1063 1091
e 1063 1092
e 1063 1093
e 1063 1094
e 1063 1095
e 1063 1096
e 1063 1097
e 1063 1098
e 1063 1099
e 1063 1100
e 1063 1101
e 1063 1102
e 1063 1103
e 1063 1104
e 1063 1105
e 1063 1106
e 1063 1107
e 1063 1108
e 1063 1109
e 1110 1111
e 1110 1112
e 1110 1113
e 1110 1114
e 1110 1115
e 1110 1116
e 1110 1117
e 1110 1118
e 1110 1119
e 1110 1120
e 1110 1121
e 1110 1122
e 1110 1123
e 1110 1124
e 1110 1125
e 1110 1126
e 1110 1127
e 1110 1128
e 1110 1129
e 1110 1130
e 1110 1131
e 1110 1132
e 1110 1133
e 1110 1134
e 1110 1135
e 1110 1136
e 1110 1137
e 1110 1138
e 1110 1139
e 1110 1140
e 1110 1141
e 1110 1142
e 1110 1143
e 1110 1144
e 1110 1145
e 1110 1146
e 1110 1147
e 1110 1148
e 1110 1149
e 1110 1150
e 1110 1151
e 1110 1152
e 1110 1153
e 1110 1154
e 1110 1155
e 1156 1157
e 1156 1158
e 1156 1159
e 1156 1160
e 1156 1161
e 1156 1162
e 1156 1163
e 1156 1164
e 1156 1165
e 1156 1166
e 1156 1167
e 1156 1168
e 1156 1169
e 1156 1170
e 1156 1171
e 1156 1172
e 1156 1173
e 1156 1174
e 1156 1175
e 1156 1176
e 1156 1177
e 1156 1178
e 1156 1179
e 1156 1180
e 1156 1181
e 1156 1182
e 1156 1183
e 1156 1184
e 1156 1185
e 1156 1186
e 1156 1187
e 1156 1188
e 1156 1189
e 1156 1190
e 1156 1191
e 1156 1192
e 1193 1194
e 1193 1195
e 1193 1196
e 1193 1197
e 1193 1198
e 1193 1199
e 1193 1200
e 1193 1201
e 1193 1202
e 1193 1203
e 1193 1204
e 1193 1205
e 1193 1206
e 1193 1207
e 1193 1208
e 1193 1209
e 1193 1210
e 1211 1212
e 1211 1213
e 1211 1214
e 1211 1215
e 1211 1216
e 1211 1217
e 1211 1218
e 1211 1219
e 1211 1220
e 1211 1221
e 1211 1222
e 1211 1223
e 1211 1224
e 1211 1225
e 1211 1226
e 1211 1227
e 1211 1228
e 1211 1229
e 1211 1230
e 1211 1231
e 1211 1232
e 1211 1233
e 1211 1234
e 1211 1235
e 1211 1236
e 1211 1237
e 1211 1238
e 1211 1239
e 1211 1240
e 1211 1241
e 1211 1242
e 1211 1243
e 1211 1244
e 1211 1245
e 1211 1246
e 1211 1247
e 1211 1248
e 1211 1249
e 1211 1250
e 1211 1251
e 1211 1252
e 1211 1253
e 1254 1255
e 1254 1256
e 1254 1257
e 1254 1258
e 1254 1259
e 1254 1260
e 1254 1261
e 1254 1262
e 1254 1263
e 1254 1264
e 1254 1265
e 1254 1266
e 1254 1267
e 1254 1268
e 1254 1269
e 1254 1270
e 1254 1271
e 1254 1272
e 1254 1273
e 1254 1274
e 1254 1275
e 1254 1276
e 1254 1277
e 1254 1278
e 1254 1279
e 1254 1280
e 1254 1281
e 1254 1282
e 1254 1283
e 1254 1284
e 1254 1285
e 1254 1286
e 1254 1287
e 1254 1288
e 1254 1289
e 1254 1290
e 1254 1291
e 1254 1292
e 1293 1294
e 1293 1295
e 1293 1296
e 1293 1297
e 1293 1298
e 1293 1299
e 1293 1300
e 1293 1301
e 1293 1302
e 1293 1303
e 1293 1304
e 1293 1305
e 1293 1306
e 1293 1307
e 1293 1308
e 1309 1310
e 1309 1311
e 1309 1312
e 1309 1313
e 1309 1314
e 1309 1315
e 1309 1316
e 1309 1317
e 1309 1318
e 1309 1319
e 1309 1320
e 1309 1321
e 1309 1322
e 1309 1323
e 1309 1324
e 1309 1325
e 1309 1326
e 1309 1327
e 1309 1328
e 1309 1329
e 1309 1330
e 1309 1331
e 1332 1333
e 1332 1334
e 1332 1335
e 1332 1336
e 1332 1337
e 1332 1338
e 1332 1339
e 1332 1340
e 1332 1341
e 1332 1342
e 1332 1343
e 1332 1344
e 1332 1345
e 1332 1346
e 1332 1347
e 1332 1348
e 1332 1349
e 1332 1350
e 1332 1351
e 1332 1352
e 1332 1353
e 1332 1354
e 1332 1355
e 1332 1356
e 1332 1357
e 1358 1359
e 1358 1360
e 1358 1361
e 1358 1362
e 1358 1363
e 1358 1364
e 1358 1365
e 1358 1366
e 1358 1367
e 1358 1368
e 1358 1369
e 1358 1370
e 1358 1371
e 1358 1372
e 1358 1373
e 1358 1374
e 1358 1375
e 1358 1376
e 1358 1377
e 1358 1378
e 1358 1379
e 1358 1380
e 1358 1381
e 1358 1382
e 1358 1383
e 1358 1384
e 1358 1385
e 1358 1386
e 1358 1387
e 1358 1388
e 1358 1389
e 1358 1390
e 1358 1391
e 1358 1392
e 1358 1393
e 1358 1394
e 1358 1395
e 1358 1396
e 1358 1397
e 1358 1398
e 1358 1399
e 1358 1400
e 1358 1401
e 1358 1402
e 1358 1403
e 1404 1405
e 1404 1406
e 1404 1407
e 1404 1408
e 1404 1409
e 1404 1410
e 1404 1411
e 1404 1412
e 1404 1413
e 1404 1414
e 1404 1415
e 1404 1416
e 1404 1417
e 1404 1418
e 1404 1419
e 1404 1420
e 1404 1421
e 1404 1422
e 1404 1423
e 1404 1424
e 1404 1425
e 1404 1426
e 1404 1427
e 1404 1428
e 1404 1429
e 1404 1430
e 1404 1431
e 1404 1432
e 1404 1433
e 1404 1434
e 1404 1435
e 1436 1437
e 1436 1438
e 1436 1439
e 1436 1440
e 1436 1441
e 1436 1442
e 1436 1443
e 1436 1444
e 1436 1445
e 1436 1446
e 1436 1447
e 1436 1448
e 1436 1449
e 1436 1450
e 1436 1451
e 1436 1452
e 1436 1453
e 1436 1454
e 1455 1456
e 1455 1457
e 1455 1458
e 1455 1459
e 1455 1460
e 1455 1461
e 1455 1462
e 1455 1463
e 1455 1464
e 1455 1465
e 1455 1466
e 1455 1467
e 1455 1468
e 1455 1469
e 1455 1470
e 1455 1471
e 1455 1472
e 1455 1473
e 1455 1474
e 1455 1475
e 1455 1476
e 1455 1477
e 1455 1478
e 1455 1479
e 1455 1480
e 1455 1481
e 1455 1482
e 1455 1483
e 1455 1484
e 1455 1485
e 1455 1486
e 1455 1487
e 1455 1488
e 1489 1490
e 1489 1491
e 1489 1492
e 1489 1493
e 1489 1494
e 1489 1495
e 1489 1496
e 1489 1497
e 1489 1498
e 1489 1499
e 1489 1500
e 1489 1501
e 1489 1502
e 1489 1503
e 1489 1504
e 1489 1505
e 1489 1506
e 1489 1507
e 1489 1508
e 1489 1509
e 1489 1510
e 1489 1511
e 1489 1512
e 1489 1513
e 1489 1514
e 1515 1516
e 1515 1517
e 1515 1518
e 1515 1519
e 1515 1520
e 1515 1521
e 1515 1522
e 1515 1523
e 1515 1524
e 1515 1525
e 1515 1526
e 1515 1527
e 1515 1528
e 1515 1529
e 1515 1530
e 1515 1531
e 1515 1532
e 1515 1533
e 1515 1534
e 1515 1535
e 1515 1536
e 1515 1537
e 1515 1538
e 1515 1539
e 1515 1540
e 1541 1542
e 1541 1543
e 1541 1544
e 1541 1545
e 1541 1546
e 1541 1547
e 1541 1548
e 1541 1549
e 1541 1550
e 1541 1551
e 1541 1552
e 1541 1553
e 1554 1555
e 1554 1556
e 1554 1557
e 1554 1558
e 1554 1559
e 1554 1560
e 1554 1561
e 1554 1562
e 1554 1563
e 1554 1564
e 1554 1565
e 1554 1566
e 1554 1567
e 1554 1568
e 1554 1569
e 1554 1570
e 1554 1571
e 1554 1572
e 1554 1573
e 1554 1574
e 1554 1575
e 1554 1576
e 1554 1577
e 1554 1578
e 1554 1579
e 1554 1580
e 1554 1581
e 1554 1582
e 1554 1583
e 1554 1584
e 1554 1585
e 1554 1586
e 1554 1587
e 1554 1588
e 1554 1589
e 1554 1590
e 1554 1591
e 1554 1592
e 1554 1593
e 1594 1595
e 1594 1596
e 1594 1597
e 1594 1598
e 1594 1599
e 1594 1600
e 1594 1601
e 1594 1602
e 1594 1603
e 1594 1604
e 1594 1605
e 1594 1606
e 1594 1607
e 1594 1608
e 1594 1609
e 1594 1610
e 1594 1611
e 1594 1612
e 1594 1613
e 1594 1614
e 1594 1615
e 1594 1616
e 1594 1617
e 1594 1618
e 1594 1619
e 1594 1620
e 1594 1621
e 1594 1622
e 1594 1623
e 1594 1624
e 1594 1625
e 1594 1626
e 1594 1627
e 1594 1628
e 1594 1629
e 1594 1630
e 1594 1631
e 1594 1632
e 1594 1633
e 1594 1634
e 1594 1635
e 1594 1636
e 1594 1637
e 1638 1639
e 1638 1640
e 1638 1641
e 1638 1642
e 1638 1643
e 1638 1644
e 1638 1645
e 1638 1646
e 1638 1647
e 1638 1648
e 1638 1649
e 1638 1650
e 1638 1651
e 1638 1652
e 1638 1653
e 1638 1654
e 1638 1655
e 1638 1656
e 1638 1657
e 1638 1658
e 1638 1659
e 1638 1660
e 1638 1661
e 1638 1662
e 1638 1663
e 1638 1664
e 1638 1665
e 1638 1666
e 1638 1667
e 1638 1668
e 1638 1669
e 1638 1670
e 1638 1671
e 1638 1672
e 1638 1673
e 1638 1674
e 1638 1675
e 1638 1676
e 1638 1677
e 1638 1678
e 1638 1679
e 1638 1680
e 1638 1681
e 1638 1682
e 1638 1683
e 1638 1684
e 1638 1685
e 1638 1686
e 1638 1687
e 1688 1689
e 1688 1690
e 1688 1691
e 1688 1692
e 1688 1693
e 1688 1694
e 1688 1695
e 1688 1696
e 1688 1697
e 1688 1698
e 1688 1699
e 1688 1700
e 1688 1701
e 1688 1702
e 1688 1703
e 1688 1704
e 1688 1705
e 1688 1706
e 1688 1707
e 1688 1708
e 1688 1709
e 1688 1710
e 1688 1711
e 1688 1712
e 1688 1713
e 1688 1714
e 1688 1715
e 1716 1717
e 1716 1718
e 1716 1719
e 1716 1720
e 1716 1721
e 1716 1722
e 1716 1723
e 1716 1724
e 1716 1725
e 1716 1726
e 1716 1727
e 1716 1728
e 1716 1729
e 1716 1730
e 1716 1731
e 1732 1733
e 1732 1734
e 1732 1735
e 1732 1736
e 1732 1737
e 1732 1738
e 1732 1739
e 1732 1740
e 1732 1741
e 1732 1742
e 1732 1743
e 1732 1744
e 1732 1745
e 1732 1746
e 1732 1747
e 1732 1748
e 1732 1749
e 1732 1750
e 1732 1751
e 1732 1752
e 1732 1753
e 1732 1754
e 1732 1755
e 1732 1756
e 1732 1757
e 1732 1758
e 1732 1759
e 1732 1760
e 1761 1762
e 1761 1763
e 1761 1764
e 1761 1765
e 1761 1766
e 1761 1767
e 1761 1768
e 1761 1769
e 1761 1770
e 1761 1771
e 1761 1772
e 1761 1773
e 1761 1774
e 1761 1775
e 1761 1776
e 1761 1777
e 1761 1778
e 1761 1779
e 1761 1780
e 1761 1781
e 1761 1782
e 1761 1783
e 1761 1784
e 1761 1785
e 1761 1786
e 1761 1787
e 1761 1788
e 1761 1789
e 1761 1790
e 1761 1791
e 1761 1792
e 1761 1793
e 1761 1794
e 1761 1795
e 1761 1796
e 1761 1797
e 1761 1798
e 1761 1799
e 1761 1800
e 1761 1801
e 1761 1802
e 1761 1803
e 1761 1804
e 1761 1805
e 1761 1806
e 1761 1807
e 1761 1808
e 1761 1809
e 1761 1810
e 1811 1812
e 1811 1813
e 1811 1814
e 1811 1815
e 1811 1816
e 1811 1817
e 1811 1818
e 1811 1819
e 1811 1820
e 1811 1821
e 1811 1822
e 1811 1823
e 1811 1824
e 1811 1825
e 1811 1826
e 1811 1827
e 1811 1828
e 1811 1829
e 1811 1830
e 1811 1831
e 1811 1832
e 1811 1833
e 1811 1834
e 1811 1835
e 1811 1836
e 1811 1837
e 1811 1838
e 1811 1839
e 1811 1840
e 1811 1841
e 1811 1842
e 1811 1843
e 1811 1844
e 1811 1845
e 1811 1846
e 1811 1847
e 1811 1848
e 1811 1849
e 1850 1851
e 1850 1852
e 1850 1853
e 1850 1854
e 1850 1855
e 1850 1856
e 1850 1857
e 1850 1858
e 1850 1859
e 1850 1860
e 1850 1861
e 1850 1862
e 1850 1863
e 1850 1864
e 1850 1865
e 1850 1866
e 1850 1867
e 1850 1868
e 1850 1869
e 1850 1870
e 1850 1871
e 1850 1872
e 1850 1873
e 1850 1874
e 1850 1875
e 1850 1876
e 1850 1877
e 1850 1878
e 1850 1879
e 1850 1880
e 1850 1881
e 1850 1882
e 1850 1883
e 1850 1884
e 1850 1885
e 1850 1886
e 1850 1887
e 1850 1888
e 1850 1889
e 1890 1891
e 1890 1892
e 1890 1893
e 1890 1894
e 1890 1895
e 1890 1896
e 1890 1897
e 1890 1898
e 1890 1899
e 1890 1900
e 1890 1901
e 1890 1902
e 1890 1903
e 1890 1904
e 1890 1905
e 1890 1906
e 1890 1907
e 1890 1908
e 1890 1909
e 1890 1910
e 1890 1911
e 1890 1912
e 1890 1913
e 1890 1914
e 1890 1915
e 1890 1916
e 1890 1917
e 1890 1918
e 1890 1919
e 1890 1920
e 1890 1921
e 1890 1922
e 1890 1923
e 1890 1924
e 1890 1925
e 1890 1926
e 1890 1927
e 1890 1928
e 1890 1929
e 1890 1930
e 1890 1931
e 1890 1932
e 1890 1933
e 1890 1934
e 1890 1935
e 1936 1937
e 1936 1938
e 1936 1939
e 1936 1940
e 1936 1941
e 1936 1942
e 1936 1943
e 1936 1944
e 1936 1945
e 1936 1946
e 1936 1947
e 1936 1948
e 1936 1949
e 1936 1950
e 1936 1951
e 1936 1952
e 1936 1953
e 1954 1955
e 1954 1956
e 1954 1957
e 1954 1958
e 1954 1959
e 1954 1960
e 1954 1961
e 1954 1962
e 1954 1963
e 1954 1964
e 1954 1965
e 1954 1966
e 1954 1967
e 1954 1968
e 1954 1969
e 1954 1970
e 1954 1971
e 1954 1972
e 1954 1973
e 1954 1974
e 1954 1975
e 1954 1976
e 1954 1977
e 1954 1978
e 1954 1979
e 1954 1980
e 1981 1982
e 1981 1983
e 1981 1984
e 1981 1985
e 1981 1986
e 1981 1987
e 1981 1988
e 1981 1989
e 1981 1990
e 1981 1991
e 1981 1992
e 1981 1993
e 1981 1994
e 1981 1995
e 1981 1996
e 1981 1997
e 1981 1998
e 1981 1999
e 1981 2000
e 1981 2001
e 1981 2002
e 1981 2003
e 1981 2004
e 1981 2005
e 1981 2006
e 1981 2007
e 1981 2008
e 1981 2009
e 1981 2010
e 1981 2011
e 1981 2012
e 1981 2013
e 1981 2014
e 1981 2015
e 1981 2016
e 1981 2017
e 1981 2018
e 1981 2019
e 1981 2020
e 1981 2021
e 1981 2022
e 1981 2023
e 1981 2024
e 1981 2025
e 1981 2026
e 1981 2027
e 2028 2029
e 2028 2030
e 2028 2031
e 2028 2032
e 2028 2033
e 2028 2034
e 2028 2035
e 2028 2036
e 2028 2037
e 2028 2038
e 2028 2039
e 2040 2041
e 2040 2042
e 2040 2043
e 2040 2044
e 2040 2045
e 2040 2046
e 2040 2047
e 2040 2048
e 2040 2049
e 2040 2050
e 2040 2051
e 2040 2052
e 2040 2053
e 2040 2054
e 2040 2055
e 2040 2056
e 2040 2057
e 2040 2058
e 2040 2059
e 2040 2060
e 2040 2061
e 2040 2062
e 2040 2063
e 2040 2064
e 2040 2065
e 2040 2066
e 2040 2067
e 2040 2068
e 2040 2069
e 2040 2070
e 2040 2071
e 2040 2072
e 2040 2073
e 2040 2074
e 2075 2076
e 2075 2077
e 2075 2078
e 2075 2079
e 2075 2080
e 2075 2081
e 2075 2082
e 2075 2083
e 2075 2084
e 2075 2085
e 2075 2086
e 2075 2087
e 2075 2088
e 2075 2089
e 2075 2090
e 2075 2091
e 2075 2092
e 2075 2093
e 2075 2094
e 2075 2095
e 2075 2096
e 2075 2097
e 2075 2098
e 2075 2099
e 2075 2100
e 2075 2101
e 2075 2102
e 2075 2103
e 2104 2105
e 2104 2106
e 2104 2107
e 2104 2108
e 2104 2109
e 2104 2110
e 2104 2111
e 2104 2112
e 2104 2113
e 2104 2114
e 2104 2115
e 2104 2116
e 2104 2117
e 2104 2118
e 2104 2119
e 2104 2120
e 2104 2121
e 2104 2122
e 2104 2123
e 2104 2124
e 2104 2125
e 2104 2126
e 2104 2127
e 2104 2128
e 2104 2129
e 2104 2130
e 2104 2131
e 2104 2132
e 2104 2133
e 2104 2134
e 2104 2135
e 2104 2136
e 2104 2137
e 2104 2138
e 2104 2139
e 2104 2140
e 2104 2141
e 2104 2142
e 2104 2143
e 2104 2144
e 2104 2145
e 2104 2146
e 2104 2147
e 2104 2148
e 2104 2149
e 2104 2150
e 2104 2151
e 2104 2152
e 2153 2154
e 2153 2155
e 2153 2156
e 2153 2157
e 2153 2158
e 2153 2159
e 2153 2160
e 2153 2161
e 2153 2162
e 2153 2163
e 2153 2164
e 2153 2165
e 2153 2166
e 2153 2167
e 2153 2168
e 2153 2169
e 2153 2170
e 2153 2171
e 2153 2172
e 2153 2173
e 2153 2174
e 2153 2175
e 2153 2176
e 2153 2177
e 2153 2178
e 2153 2179
e 2153 2180
e 2153 2181
e 2153 2182
e 2153 2183
e 2153 2184
e 2153 2185
e 2153 2186
e 2153 2187
e 2153 2188
e 2153 2189
e 2153 2190
e 2153 2191
e 2153 2192
e 2153 2193
e 2153 2194
e 2153 2195
e 2196 2197
e 2196 2198
e 2196 2199
e 2196 2200
e 2196 2201
e 2196 2202
e 2196 2203
e 2196 2204
e 2196 2205
e 2196 2206
e 2196 2207
e 2196 2208
e 2196 2209
e 2196 2210
e 2196 2211
e 2196 2212
e 2196 2213
e 2196 2214
e 2196 2215
e 2196 2216
e 2196 2217
e 2196 2218
e 2196 2219
e 2196 2220
e 2196 2221
e 2196 2222
e 2196 2223
e 2196 2224
e 2196 2225
e 2196 2226
e 2196 2227
e 2196 2228
e 2196 2229
e 2196 2230
e 2196 2231
e 2196 2232
e 2196 2233
e 2196 2234
e 2196 2235
e 2196 2236
e 2196 2237
e 2196 2238
e 2196 2239
e 2196 2240
e 2241 2242
e 2241 2243
e 2241 2244
e 2241 2245
e 2241 2246
e 2241 2247
e 2241 2248
e 2241 2249
e 2241 2250
e 2241 2251
e 2241 2252
e 2241 2253
e 2241 2254
e 2241 2255
e 2241 2256
e 2241 2257
e 2241 2258
e 2241 2259
e 2241 2260
e 2241 2261
e 2241 2262
e 2241 2263
e 2241 2264
e 2241 2265
e 2241 2266
e 2241 2267
e 2241 2268
e 2241 2269
e 2241 2270
e 2241 2271
e 2241 2272
e 2241 2273
e 2241 2274
e 2241 2275
e 2241 2276
e 2241 2277
e 2241 2278
e 2279 2280
e 2279 2281
e 2279 2282
e 2279 2283
e 2279 2284
e 2279 2285
e 2279 2286
e 2279 2287
e 2279 2288
e 2279 2289
e 2279 2290
e 2279 2291
e 2279 2292
e 2279 2293
e 2279 2294
e 2279 2295
e 2279 2296
e 2279 2297
e 2279 2298
e 2279 2299
e 2279 2300
e 2279 2301
e 2279 2302
e 2279 2303
e 2279 2304
e 2279 2305
e 2279 2306
e 2279 2307
e 2279 2308
e 2279 2309
e 2279 2310
e 2279 2311
e 2279 2312
e 2279 2313
e 2279 2314
e 2279 2315
e 2279 2316
e 2279 2317
e 2279 2318
e 2279 2319
e 2279 2320
e 2279 2321
e 2279 2322
e 2279 2323
e 2279 2324
e 2279 2325
e 2279 2326
e 2279 2327
e 2328 2329
e 2328 2330
e 2328 2331
e 2328 2332
e 2328 2333
e 2328 2334
e 2328 2335
e 2328 2336
e 2328 2337
e 2328 2338
e 2328 2339
e 2328 2340
e 2328 2341
e 2328 2342
e 2328 2343
e 2328 2344
e 2328 2345
e 2328 2346
e 2328 2347
e 2328 2348
e 2328 2349
e 2328 2350
e 2328 2351
e 2328 2352
e 2328 2353
e 2328 2354
